Gurobi 12.0.3:   lim:time = 14400

  mip:bestbound = 1

Set parameter LogToConsole to value 1

  tech:outlev = 1

Set parameter Cuts to value 3

  cut:cuts = 3

Set parameter Presolve to value 2

  pre:solve = 2

Set parameter MIPFocus to value 2

  mip:focus = 2

Set parameter Symmetry to value 2

  mip:symmetry = 2

Set parameter InfUnbdInfo to value 1

Gurobi Optimizer version 12.0.3 build v12.0.3rc0 (win64 - Windows 10.0 (19045.2))



CPU model: 11th Gen Intel(R) Core(TM) i7-11700 @ 2.50GHz, instruction set [SSE2|AVX|AVX2|AVX512]

Thread count: 8 physical cores, 16 logical processors, using up to 16 threads



Non-default parameters:

TimeLimit  14400

MIPFocus  2

Symmetry  2

Cuts  3

InfUnbdInfo  1

Presolve  2



Optimize a model with 273 rows, 451 columns and 2446 nonzeros

Model fingerprint: 0xbcdb611c

Model has 3 quadratic constraints

Variable types: 32 continuous, 419 integer (0 binary)

Coefficient statistics:

  Matrix range     [1e+00, 1e+05]

  QMatrix range    [1e+00, 1e+00]

  QLMatrix range   [1e+01, 1e+01]

  Objective range  [6e+00, 1e+02]

  Bounds range     [1e+00, 1e+02]

  RHS range        [1e+00, 1e+05]

  QRHS range       [1e+02, 1e+02]

Presolve removed 30 rows and 71 columns

Presolve time: 0.05s

Presolved: 498 rows, 632 columns, 3634 nonzeros

Variable types: 11 continuous, 621 integer (494 binary)

Found heuristic solution: objective 331.0200000

Root relaxation presolve removed 26 rows and 0 columns

Root relaxation presolved: 337 rows, 510 columns, 4100 nonzeros





Root relaxation: objective 1.712303e+02, 71 iterations, 0.00 seconds (0.01 work units)



    Nodes    |    Current Node    |     Objective Bounds      |     Work

 Expl Unexpl |  Obj  Depth IntInf | Incumbent    BestBd   Gap | It/Node Time



     0     0  171.23034    0   20  331.02000  171.23034  48.3%     -    0s

H    0     0                     314.3100000  171.23034  45.5%     -    0s

H    0     0                     279.7300000  171.23034  38.8%     -    0s

H    0     0                     266.5300000  171.23034  35.8%     -    0s

     0     0  183.89000    0   16  266.53000  183.89000  31.0%     -    0s

     0     0  183.89000    0   34  266.53000  183.89000  31.0%     -    0s

H    0     0                     261.4300000  183.89000  29.7%     -    0s

     0     0  183.89000    0   29  261.43000  183.89000  29.7%     -    0s

H    0     0                     249.7700000  183.89103  26.4%     -    0s

     0     0  189.29000    0   23  249.77000  189.29000  24.2%     -    0s

     0     0  190.21000    0   22  249.77000  190.21000  23.8%     -    0s

     0     0  191.95000    0   33  249.77000  191.95000  23.1%     -    0s

     0     0  196.74140    0   29  249.77000  196.74140  21.2%     -    0s

     0     0  196.74140    0   29  249.77000  196.74140  21.2%     -    0s

     0     0  196.74140    0   27  249.77000  196.74140  21.2%     -    0s

     0     0  196.74140    0   23  249.77000  196.74140  21.2%     -    0s

     0     0  196.74140    0   33  249.77000  196.74140  21.2%     -    0s

     0     0  196.74140    0   36  249.77000  196.74140  21.2%     -    0s

     0     0  196.74140    0   48  249.77000  196.74140  21.2%     -    0s

H    0     0                     245.8000000  196.74140  20.0%     -    1s

     0     0  196.74140    0   51  245.80000  196.74140  20.0%     -    1s

     0     0  196.74140    0   49  245.80000  196.74140  20.0%     -    1s

     0     0  196.74140    0   39  245.80000  196.74140  20.0%     -    1s

     0     0  196.74140    0   38  245.80000  196.74140  20.0%     -    1s

H    0     0                     242.3400000  196.74140  18.8%     -    1s

     0     0  196.74140    0   32  242.34000  196.74140  18.8%     -    1s

     0     0  196.74140    0   23  242.34000  196.74140  18.8%     -    1s

     0     0  197.98034    0   24  242.34000  197.98034  18.3%     -    1s

     0     0  198.19434    0   44  242.34000  198.19434  18.2%     -    1s

     0     0  200.81000    0   14  242.34000  200.81000  17.1%     -    1s

     0     0  202.91034    0    6  242.34000  202.91034  16.3%     -    1s

     0     0  203.19000    0    6  242.34000  203.19000  16.2%     -    1s

     0     0  204.42034    0    6  242.34000  204.42034  15.6%     -    1s

     0     0  204.42034    0    6  242.34000  204.42034  15.6%     -    1s

     0     2  204.42034    0    6  242.34000  204.42034  15.6%     -    1s



Cutting planes:

  Learned: 9

  Gomory: 28

  Lift-and-project: 28

  Cover: 6

  Implied bound: 26

  Projected implied bound: 1

  Clique: 5

  MIR: 24

  StrongCG: 32

  Flow cover: 80

  Inf proof: 2

  Zero half: 50

  RLT: 90

  Relax-and-lift: 15



Explored 1963 nodes (20349 simplex iterations) in 2.64 seconds (1.43 work units)

Thread count was 16 (of 16 available processors)



Solution count 8: 242.34 245.8 249.77 ... 331.02



Optimal solution found (tolerance 1.00e-04)

Best objective 2.423400000000e+02, best bound 2.423400000000e+02, gap 0.0000%



AMPL MP initial flat model has 451 variables (0 integer, 419 binary);

Objectives: 1 linear; 

Constraints:  273 linear; 3 quadratic;



AMPL MP final model has 451 variables (0 integer, 419 binary);

Objectives: 1 linear; 

Constraints:  273 linear; 3 quadratic;





-----RESULTS INFO-----
running_time:  2.782
TC.best_bound:  242.34
TC:  242.34
MIP Gap (%):  0
=== Vehicle Routes ===
Vehicle 1: 0 → 5
Vehicle 1: 1 → 15
Vehicle 1: 5 → 11
Vehicle 1: 8 → 1
Vehicle 1: 11 → 8
Vehicle 2: 0 → 15
Vehicle 3: 0 → 15

=== Full Vehicle Routes ===
Vehicle 1: 0 → 5 → 11 → 8 → 1 → 0 (88<100)
Vehicle 2: 0 → 0 (0<100)
Vehicle 3: 0 → 0 (0<100)
Arc used by MRT line: y variables:
Customer assigment to PL: u variables:
2 11
3 8
4 11
6 11
7 8
Node is served by regular vehicle: g variables:
1
5
8
11
Customer assigment to Home delivery: gm variables:
1
5
Node total demands: ntd variables:
1 13 1
5 6 1
6 0 0
7 0 0
14 0 0
8 38 1
9 0 0
10 0 0
11 31 1
12 0 0
13 0 0
Customer's demand delivered to PL: l variables:
2
3
4
6
7
Lockers load <= capacity:
0 <= 71
38 <= 92
0 <= 73
0 <= 86
31 <= 79
0 <= 73
0 <= 82
